variable	efe equal -4.0128
variable        eref equal ${efe}*1024
variable	pairstyle string "eam/alloy"
variable	paircoeff string "* * temp.eam Fe C"

# C@Octa

dimension       3
units           metal
boundary        p p p
atom_style      atomic
read_data       ../coords/coord0.read_data
pair_style      ${pairstyle}
pair_coeff      ${paircoeff}
neighbor        4.0 bin
neigh_modify    delay 5
min_style       cg
variable        e equal etotal
minimize        0 1e-4 5000 10000
variable        eoctarelax equal $e

clear

# Binding energy -- configuration 1 (d in the paper)
dimension       3
units           metal
boundary        p p p
atom_style      atomic
read_data       ../coords/coord1.read_data
pair_style      ${pairstyle}
pair_coeff      ${paircoeff}
neighbor        4.0 bin
neigh_modify    delay 5
min_style       cg
variable        e equal etotal
minimize        0 1e-4 5000 10000
variable        econf1 equal $e
variable        beconf1 equal 2.0*${eoctarelax}-(${econf1}+${eref})

clear

# Binding energy -- configuration 2 (h in the paper)
dimension       3
units           metal
boundary        p p p
atom_style      atomic
read_data       ../coords/coord2.read_data
pair_style      ${pairstyle}
pair_coeff      ${paircoeff}
neighbor        4.0 bin
neigh_modify    delay 5
min_style       cg
variable        e equal etotal
minimize        0 1e-4 5000 10000
variable        econf2 equal $e
variable        beconf2 equal 2.0*${eoctarelax}-(${econf2}+${eref})

clear

# Binding energy -- configuration 3 (e in the paper)
dimension       3
units           metal
boundary        p p p
atom_style      atomic
read_data       ../coords/coord3.read_data
pair_style      ${pairstyle}
pair_coeff      ${paircoeff}
neighbor        4.0 bin
neigh_modify    delay 5
min_style       cg
variable        e equal etotal
minimize        0 1e-4 5000 10000
variable        econf3 equal $e
variable        beconf3 equal 2.0*${eoctarelax}-(${econf3}+${eref})

clear

# Binding energy -- configuration 4 (f in the paper)
dimension       3
units           metal
boundary        p p p
atom_style      atomic
read_data       ../coords/coord4.read_data
pair_style      ${pairstyle}
pair_coeff      ${paircoeff}
neighbor        4.0 bin
neigh_modify    delay 5
min_style       cg
variable        e equal etotal
minimize        0 1e-4 5000 10000
variable        econf4 equal $e
variable        beconf4 equal 2.0*${eoctarelax}-(${econf4}+${eref})

clear

# Binding energy -- configuration 5 (g in the paper)
dimension       3
units           metal
boundary        p p p
atom_style      atomic
read_data       ../coords/coord5.read_data
pair_style      ${pairstyle}
pair_coeff      ${paircoeff}
neighbor        4.0 bin
neigh_modify    delay 5
min_style       cg
variable        e equal etotal
minimize        0 1e-4 5000 10000
variable        econf5 equal $e
variable        beconf5 equal 2.0*${eoctarelax}-(${econf5}+${eref})

# Write the potdata.dat file
print           ${beconf1} file potdata.dat
print           ${beconf2} append potdata.dat
print		${beconf3} append potdata.dat
print		${beconf4} append potdata.dat
print		${beconf5} append potdata.dat
